p cnf 26 63
a 24 5 0
e 1 2 3 4 6 7 8 9 10 11 12 13 14 15 16 17 18 19 20 21 22 23 25 26 0
-3 1 0
-3 -2 0
-1 2 3 0
-5 -6 0
5 -6 0
-6 7 -8 0
6 -7 -8 0
-6 -7 8 0
6 7 8 0
-9 -4 0
-9 8 0
4 -8 9 0
12 -10 0
12 -11 0
10 11 -12 0
-9 -12 -13 0
9 12 -13 0
-9 12 13 0
9 -12 13 0
-14 -3 0
-14 -13 0
3 13 14 0
-15 -7 0
-15 2 0
7 -2 15 0
16 11 0
16 -7 0
-11 7 -16 0
17 -16 0
17 -9 0
16 9 -17 0
18 15 0
18 17 0
-15 -17 -18 0
19 -14 0
19 18 0
14 -18 -19 0
-20 -7 0
-20 -9 0
7 9 20 0
21 -5 0
21 -20 0
5 20 -21 0
22 -16 0
22 21 0
16 -21 -22 0
24 23 0
24 11 0
-23 -11 -24 0
-25 -22 0
-25 24 0
22 -24 25 0
-19 25 -26 0
19 -25 -26 0
-19 -25 26 0
19 25 26 0
24 -15 22 0
-22 -12 -14 4 0
22 23 -17 24 -3 0
4 -1 -6 9 0
-16 8 -22 2 -12 -7 0
14 15 -9 17 0
26 0
